c sliceTL_01.cnf
p cnf 112 25
-101 10 0
101 -10 0
-110 8 0
110 -8 0
-104 17 0
104 -17 0
-107 8 0
107 -8 0
-106 15 0
106 -15 0
-109 11 0
109 -11 0
-103 14 0
103 -14 0
-112 8 0
112 -8 0
-105 16 0
105 -16 0
-108 12 0
108 -12 0
-102 13 0
102 -13 0
-111 8 0
111 -8 0
